s td 12 29 40
b 1 1 2 4 5 6 8 9 12 14 16 17 18 19 20 23 24 25 26 27 28 29 30 31 33 34 35 37 38 40
b 2 1 4 5 6 8 9 12 14 16 17 18 19 22 23 24 25 26 27 28 29 30 31 33 34 35 37 38 40
b 3 1 3 4 5 6 8 9 14 16 17 18 19 22 23 24 25 26 28 29 30 33 34 35 37 38 40
b 4 3 4 5 6 7 8 9 17 18 19 22 23 25 28 29 30 40
b 5 1 2 4 5 6 8 9 11 12 14 16 17 18 19 20 23 24 25 26 27 28 29 30 31 33 34 35 37 40
b 6 1 2 4 5 6 8 9 10 11 12 14 16 17 18 20 23 24 25 26 27 28 29 31 33 34 35 37 40
b 7 1 2 4 5 6 8 9 10 11 12 16 17 18 20 23 25 26 27 28 29 31 32 33 34 35 37 40
b 8 1 2 4 5 6 8 9 10 11 12 16 18 20 21 23 26 27 28 29 31 32 33 34 35 37 40
b 9 2 4 6 10 12 16 18 20 21 23 26 27 28 29 33 34 35 37 39
b 10 6 8 9 11 16 17 18 19 20 23 30 31 33 34 36 37
b 11 1 2 4 5 6 8 12 14 15 16 18 19 20 23 24 25 26 27 29 30 31 33 34 35 37 38 40
b 12 2 4 5 6 12 13 14 15 16 18 19 24 27 29 31 33 34 35 37 38 40
1 2
1 5
1 11
2 3
3 4
5 6
5 10
6 7
7 8
8 9
11 12
